NAME : UniGe.147892.tour
COMMENT : Length = 147892
COMMENT : Found by LKH [Keld Helsgaun] Tue Dec 16 16:34:16 2025
TYPE : TOUR
DIMENSION : 47
TOUR_SECTION
1
8
5
22
32
40
7
41
10
33
9
11
38
24
21
26
34
23
15
27
16
36
35
44
19
18
31
43
13
47
46
42
12
20
30
14
37
17
25
29
45
28
2
39
3
6
4
-1
EOF
